MoS2
1.0
        3.1640000000         0.0000000000         0.0000000000
       -1.5802000000         2.7369866861         0.0000000000
        0.0000000000         0.0000000000        12.2950000000
   Mo    S
    2    4
Direct
     0.333333333         0.666666667         0.250000000
     0.666666667         0.333333333         0.750000000
     0.333333333         0.666666667         0.629000000
     0.666666667         0.333333333         0.371000000
     0.666666667         0.333333333         0.129000000
     0.333333333         0.666666667         0.871000000
